
  32    1
  10

   0   0   4 2 3 4 8 
   7   1   6 11 10 9 7 6 5 
   6   7   3 13 10 6 
   6   7   2 9 6 
   7   7   4 16 14 13 12 
   5   5   3 16 14 12 
   8   5   3 14 13 12 
   2   4   2 12 9 
   7   8   2 17 13 
   3   3   1 12 
   5   4   1 12 
   9   6   3 18 17 15 
   6   5   2 18 15 
   8   8   2 19 17 
  10   5   2 20 19 
   3   9   2 27 19 
   9  10   4 28 24 22 20 
   1   9   6 28 27 26 25 24 22 
   7   9   5 28 25 24 22 21 
   6   5   4 27 26 25 23 
   6   6   2 26 23 
   8   7   1 23 
   1   4   3 31 30 29 
   7   7   3 31 30 29 
   7   4   2 30 29 
   9   3   1 29 
   5   8   1 29 
   3   7   1 29 
   7   5   1 32
   7   6   1 32
   1   6   1 32
   0   0   0 
